(set-logic BV) (define-fun origCir ((n145 Bool) (n141 Bool) (n96 Bool) (n103 Bool) (n138 Bool)) Bool (and (not (and n145 (not (and (and n103 n96) n138)))) (not (and n141 (and (and n103 n96) n138))))) (synth-fun skel ((n145 Bool) (n141 Bool) (n96 Bool) (n103 Bool) (n138 Bool)) Bool) (declare-var n145 Bool) (declare-var n141 Bool) (declare-var n96 Bool) (declare-var n103 Bool) (declare-var n138 Bool) (constraint (= (origCir n145 n141 n96 n103 n138) (skel n145 n141 n96 n103 n138))) (check-synth)
